121556.67 0
0 121 36 66 73 56 76 51 113 114 65 79 64 70 41 50 74 72 87 86 67 85 82 71 8 84 80 83 44 69 42 78 75 77 104 93 101 102 105 97 106 103 99 100 98 107 39 108 117 120 57 119 68 115 60 2 118 110 116 112 54 111 109 30 48 47 43 63 29 31 59 33 34 95 92 91 58 96 88 89 90 94 15 16 14 53 20 17 62 18 19 37 38 126 55 32 45 24 23 22 21 46 7 4 6 5 11 12 13 81 10 9 3 52 26 27 124 125 123 122 40 61 25 28 35 1 49